4452
4228
3825
3134
5497
2011
2804
6818
3033
3501
1837
5119
1577
7279
2726
1548
4907
3246
8364
4225
4668
7837
649
6960
8875
5949
9080
5222
3288
6404
5476
2400
6401
7065
5725
3047
3053
5156
2163
8575
2724
10126
1878
2840
4954
3207
8998
3875
3874
9351
4832
